WARNING: for repeatability, setting FPU to use double precision
============================[ Problem Statistics ]=============================
|                                                                             |
|  Number of variables:          2572                                         |
|  Number of clauses:           55767                                         |
|  Parse time:                   0.01 s                                       |
|                                                                             |
c ============================[ Search Statistics ]==============================
c | Conflicts |          ORIGINAL         |          LEARNT          | Progress |
c |           |    Vars  Clauses Literals |    Limit  Clauses Lit/Cl |          |
c ===============================================================================
c Switched to VSIDS.
c Switched to LRB.
c Switched to VSIDS.
c Switched to LRB.
c Switched to VSIDS.
c Switched to LRB.
c Switched to VSIDS.
c Switched to LRB.
c Switched to VSIDS.
c Switched to LRB.
c Switched to VSIDS.
c Switched to LRB.
c Switched to VSIDS.
c Switched to LRB.
c Switched to VSIDS.
c Switched to LRB.
c Switched to VSIDS.
c Switched to LRB.
c Switched to VSIDS.
c Switched to LRB.
c Switched to VSIDS.
c Switched to LRB.
c Switched to VSIDS.
c Switched to LRB.
c Switched to VSIDS.
c Switched to LRB.
c Switched to VSIDS.
c Switched to LRB.
c Switched to VSIDS.
c Switched to LRB.
c Switched to VSIDS.
c ===============================================================================
restarts                  : 53692
conflicts                 : 15992525       (4521 /sec)
decisions                 : 29382349       (0.00 % random) (8306 /sec)
propagations              : 5772636500     (1631867 /sec)
conflict literals         : 1272467580     (35.99 % deleted)

conflicts w/ DIP found    : 5796185        (36.24 % of conflicts)
conflicts w/ dangerous DIP: 0              (0.00 % of conflicts)
conflicts w/ DIP-learning : 140143         (0.88 % of conflicts)
decisions on ext vars     : 3878617        (13.20 % of decisions)
total ext vars            : 4843        
tried delete ext vars     : 3           
deleted ext vars          : 3           
max ext vars              : 4840        

Memory used               : 413.00 MB
CPU time                  : 3537.44 s
DIP computation time      : 91.3209 s (2.58 % of total time)
ER_sel time               : 19.9785 s
ER_add time               : 0.019785 s
ER_delC time              : 0 s
ER_delV time              : 2.7e-05 s
ER_sub time               : 23.4321 s
ER_stat time              : 0 s

INDETERMINATE
